SATISFIABLE
1 : True
2 : False
3 : False
4 : True
5 : True
6 : True
7 : False
8 : False
9 : False
10 : True
11 : False
12 : True
13 : False
14 : False
15 : True
16 : True
17 : False
18 : False
19 : True
20 : False
21 : True
22 : True
23 : True
24 : True
25 : True
26 : True
27 : False
28 : True
29 : True
30 : False
31 : False
32 : False
33 : True
34 : True
35 : True
36 : True
37 : True
38 : True
39 : False
40 : False
41 : False
42 : False
43 : False
44 : False
45 : False
46 : False
47 : False
48 : True
49 : True
50 : True
51 : False
52 : False
53 : True
54 : True
55 : False
56 : False
57 : True
58 : True
59 : False
60 : False
61 : False
62 : True
63 : False
64 : True
65 : False
66 : False
67 : False
68 : True
69 : False
70 : True
71 : False
72 : False
73 : True
74 : True
75 : True
76 : False
77 : False
78 : True
79 : False
80 : False
81 : True
82 : True
83 : True
84 : False
85 : False
86 : True
87 : True
88 : True
89 : True
90 : True
91 : True
92 : True
93 : False
94 : True
95 : True
96 : False
97 : False
98 : True
99 : False
100 : True
